NAME : lr210.964222.tour
COMMENT : Cost = 0_964222
COMMENT : Found by LKH [Keld Helsgaun] Fri Sep 15 17:42:02 2017
TYPE : TOUR
DIMENSION : 105
TOUR_SECTION
1
96
93
99
43
16
76
24
68
40
13
77
4
80
30
79
82
10
52
21
11
64
91
33
67
36
35
69
81
27
14
98
38
101
94
18
6
61
90
105
29
34
72
66
31
70
32
89
63
12
65
103
50
47
9
85
62
86
92
15
44
58
3
59
104
28
53
8
20
37
48
49
83
19
84
46
87
39
45
17
60
100
97
7
95
88
54
41
22
74
73
23
42
75
57
102
5
56
26
55
25
78
51
2
71
-1
EOF
